Reading model...
...model read.
creating competitive generators file...
...competitive generators recorded.
Loading data...
.. real-time data read.
Compiling instance...
...instance created.
Creating Offer Mitigation (model will solve as dispatch if TRUE)...
NOTE: storage offers will not be mitigated
...storage offer mitigation file created
Converting model to MPEC...
...converted
NOTE: initial MIP solve with only storage competitive to get feasible solution
Solving...

Welcome to IBM(R) ILOG(R) CPLEX(R) Interactive Optimizer 12.10.0.0
  with Simplex, Mixed Integer & Barrier Optimizers
5725-A06 5725-A29 5724-Y48 5724-Y49 5724-Y54 5724-Y55 5655-Y21
Copyright IBM Corp. 1988, 2019.  All Rights Reserved.

Type 'help' for a list of available commands.
Type 'help' followed by a command name for more
information on commands.

CPLEX> Logfile 'cplex.log' closed.
Logfile 'C:\Users\wenmi\Desktop\competitiveMPEC\logs\tmpiflhesmt.cplex.log' open.
CPLEX> New value for parallel optimization mode: -1
CPLEX> New value for mixed integer optimality gap tolerance: 0.05
CPLEX> New value for deterministic time limit in ticks: 100000
CPLEX> Problem 'C:\Users\wenmi\Desktop\competitiveMPEC\logs\tmpdpvkzjkc.pyomo.lp' read.
Read time = 0.31 sec. (27.41 ticks)
CPLEX> Problem name         : C:\Users\wenmi\Desktop\competitiveMPEC\logs\tmpdpvkzjkc.pyomo.lp
Objective sense      : Maximize
Variables            :  107779  [Nneg: 1,  Box: 44054,  Free: 8928,
                                 Binary: 54796]
Objective nonzeros   :   17722
Linear constraints   :  246995  [Less: 82866,  Greater: 118424,  Equal: 45705]
  Nonzeros           :  581029
  RHS nonzeros       :  134840

Variables            : Min LB: -5000.000        Max UB: 1000000.       
Objective nonzeros   : Min   : 0.008333333      Max   : 2500.000       
Linear constraints   :
  Nonzeros           : Min   : 0.008333333      Max   : 1000000.       
  RHS nonzeros       : Min   : 0.008333333      Max   : 1000000.       
CPLEX> Version identifier: 12.10.0.0 | 2019-11-26 | 843d4de2ae
CPXPARAM_Parallel                                -1
CPXPARAM_DetTimeLimit                            100000
CPXPARAM_MIP_Tolerances_MIPGap                   0.050000000000000003
Tried aggregator 3 times.
MIP Presolve eliminated 180685 rows and 40558 columns.
MIP Presolve added 6248 rows and 0 columns.
MIP Presolve modified 49394 coefficients.
Aggregator did 25787 substitutions.
Reduced MIP has 46771 rows, 39955 columns, and 129442 nonzeros.
Reduced MIP has 15716 binaries, 0 generals, 0 SOSs, and 0 indicators.
Presolve time = 0.33 sec. (328.08 ticks)
Probing fixed 740 vars, tightened 7226 bounds.
Probing time = 0.08 sec. (14.96 ticks)
Tried aggregator 2 times.
Detecting symmetries...
MIP Presolve eliminated 1671 rows and 1482 columns.
MIP Presolve modified 5651 coefficients.
Aggregator did 96 substitutions.
Reduced MIP has 45004 rows, 38377 columns, and 124322 nonzeros.
Reduced MIP has 14976 binaries, 0 generals, 0 SOSs, and 0 indicators.
Presolve time = 0.14 sec. (219.55 ticks)
Probing fixed 0 vars, tightened 302 bounds.
Probing time = 0.19 sec. (19.41 ticks)
Clique table members: 82864.
MIP emphasis: balance optimality and feasibility.
MIP search method: dynamic search.
Parallel mode: opportunistic, using up to 16 threads.
Root relaxation solution time = 0.66 sec. (1856.67 ticks)

        Nodes                                         Cuts/
   Node  Left     Objective  IInf  Best Integer    Best Bound    ItCnt     Gap

      0     0       16.4335   250                     16.4335     9961         
      0     0       16.4335   250                    Cuts: 46     9978         
*     0+    0                          -35.8900       16.4335           145.79%
      0     0        cutoff            -35.8900      -35.8900     9994    0.00%
Elapsed time = 2.23 sec. (3476.70 ticks, tree = 0.01 MB, solutions = 1)

Cover cuts applied:  1
Implied bound cuts applied:  1
Flow cuts applied:  58
Mixed integer rounding cuts applied:  23
Gomory fractional cuts applied:  11

Root node processing (before b&c):
  Real time             =    2.25 sec. (3480.31 ticks)
Parallel b&c, 16 threads:
  Real time             =    0.00 sec. (0.00 ticks)
  Sync time (average)   =    0.00 sec.
  Wait time (average)   =    0.00 sec.
                          ------------
Total (root+branch&cut) =    2.25 sec. (3480.31 ticks)

Solution pool: 1 solution saved.

MIP - Integer optimal solution:  Objective = -3.5890003583e+01
Solution time =    2.25 sec.  Iterations = 9994  Nodes = 0
Deterministic time = 3480.61 ticks  (1546.94 ticks/sec)

CPLEX> Incumbent solution written to file 'C:\Users\wenmi\Desktop\competitiveMPEC\logs\tmp7hpbjqwe.cplex.sol'.
CPLEX> NOTE: no warmstart specified for MIP iteration, default behavior is true
NOTE: resolving with all competitive generators using storage-only solution to warmstart
Solving...

Welcome to IBM(R) ILOG(R) CPLEX(R) Interactive Optimizer 12.10.0.0
  with Simplex, Mixed Integer & Barrier Optimizers
5725-A06 5725-A29 5724-Y48 5724-Y49 5724-Y54 5724-Y55 5655-Y21
Copyright IBM Corp. 1988, 2019.  All Rights Reserved.

Type 'help' for a list of available commands.
Type 'help' followed by a command name for more
information on commands.

CPLEX> Logfile 'cplex.log' closed.
Logfile 'C:\Users\wenmi\Desktop\competitiveMPEC\logs\tmpa5vkq94p.cplex.log' open.
CPLEX> New value for parallel optimization mode: -1
CPLEX> New value for mixed integer optimality gap tolerance: 0.05
CPLEX> New value for deterministic time limit in ticks: 100000
CPLEX> Problem 'C:\Users\wenmi\Desktop\competitiveMPEC\logs\tmppf2o4bq6.pyomo.lp' read.
Read time = 0.33 sec. (27.45 ticks)
CPLEX> MIP start file 'C:\Users\wenmi\Desktop\competitiveMPEC\logs\tmpnca2q3uf.cplex.mst' read.
CPLEX> Problem name         : C:\Users\wenmi\Desktop\competitiveMPEC\logs\tmppf2o4bq6.pyomo.lp
Objective sense      : Maximize
Variables            :  109219  [Nneg: 1,  Box: 45494,  Free: 8928,
                                 Binary: 54796]
Objective nonzeros   :   19114
Linear constraints   :  246995  [Less: 82866,  Greater: 118424,  Equal: 45705]
  Nonzeros           :  581029
  RHS nonzeros       :  134840

Variables            : Min LB: -5000.000        Max UB: 1000000.       
Objective nonzeros   : Min   : 0.008333333      Max   : 2500.000       
Linear constraints   :
  Nonzeros           : Min   : 0.008333333      Max   : 1000000.       
  RHS nonzeros       : Min   : 0.008333333      Max   : 1000000.       
CPLEX> Version identifier: 12.10.0.0 | 2019-11-26 | 843d4de2ae
CPXPARAM_Parallel                                -1
CPXPARAM_DetTimeLimit                            100000
CPXPARAM_MIP_Tolerances_MIPGap                   0.050000000000000003
1 of 1 MIP starts provided solutions.
MIP start 'm1' defined initial solution with objective -35.8900.
Tried aggregator 3 times.
MIP Presolve eliminated 180685 rows and 41998 columns.
MIP Presolve added 6248 rows and 0 columns.
MIP Presolve modified 49394 coefficients.
Aggregator did 25787 substitutions.
Reduced MIP has 46771 rows, 39955 columns, and 129442 nonzeros.
Reduced MIP has 15716 binaries, 0 generals, 0 SOSs, and 0 indicators.
Presolve time = 0.34 sec. (328.78 ticks)
Probing fixed 740 vars, tightened 7226 bounds.
Probing time = 0.06 sec. (14.96 ticks)
Tried aggregator 2 times.
Detecting symmetries...
MIP Presolve eliminated 1671 rows and 1482 columns.
MIP Presolve modified 5651 coefficients.
Aggregator did 96 substitutions.
Reduced MIP has 45004 rows, 38377 columns, and 124322 nonzeros.
Reduced MIP has 14976 binaries, 0 generals, 0 SOSs, and 0 indicators.
Presolve time = 0.14 sec. (219.56 ticks)
Probing fixed 0 vars, tightened 289 bounds.
Probing time = 0.16 sec. (15.26 ticks)
Clique table members: 82395.
MIP emphasis: balance optimality and feasibility.
MIP search method: dynamic search.
Parallel mode: opportunistic, using up to 16 threads.
Root relaxation solution time = 0.75 sec. (1945.78 ticks)

        Nodes                                         Cuts/
   Node  Left     Objective  IInf  Best Integer    Best Bound    ItCnt     Gap

*     0+    0                          -35.8900   1.44400e+07              --- 
      0     0    41813.9308   685      -35.8900    41813.9308    12516     --- 
      0     0    41352.1105   685      -35.8900     Cuts: 651    13379     --- 
      0     0    40878.6904   685      -35.8900     Cuts: 630    14168     --- 
      0     0    40786.4542   685      -35.8900     Cuts: 308    14548     --- 
      0     0    40714.5679   685      -35.8900     Cuts: 600    15201     --- 
      0     0    40703.8745   685      -35.8900      Cuts: 94    15257     --- 
      0     0    40702.3373   685      -35.8900      Cuts: 24    15275     --- 
      0     0    40702.3373   685      -35.8900       Cuts: 4    15278     --- 
      0     2    40702.3373   545      -35.8900    40702.3373    15278     --- 
Elapsed time = 6.28 sec. (6387.17 ticks, tree = 0.02 MB, solutions = 1)
     76    47    40251.6717   477      -35.8900    40632.9126    17141     --- 
    239    40    40285.3392   420      -35.8900    40632.9126    16472     --- 
    425    80    40106.4814   396      -35.8900    40632.9126    18023     --- 
    600    99    37565.0045   304      -35.8900    40632.9126    18324     --- 
    733   521        cutoff            -35.8900    40632.9126    31467     --- 
    858   465        cutoff            -35.8900    40632.9126    29281     --- 
    989   440    26620.0980   298      -35.8900    40632.9126    28142     --- 
   1112   593    25614.2456   302      -35.8900    40632.9126    41141     --- 
   1236   572    21797.2544   220      -35.8900    40632.9126    36654     --- 
   1773  1202    13873.2298   192      -35.8900    40632.9126    62453     --- 
Elapsed time = 21.31 sec. (9500.00 ticks, tree = 13.38 MB, solutions = 1)
   2289  1186    12923.7580   192      -35.8900    40632.9126    61759     --- 
   2812  1636    15170.3120   110      -35.8900    40632.9126    70778     --- 
   3337  2299     7638.6409    82      -35.8900    40632.9126    83945     --- 
   3886  2797     3537.5379    99      -35.8900    40632.9126   102093     --- 
   4410  2832    18975.5465   267      -35.8900    40632.9126   105558     --- 
   4757  3005        cutoff            -35.8900    40632.9126   113170     --- 

Performing restart 1

Repeating presolve.
Tried aggregator 3 times.
MIP Presolve eliminated 1523 rows and 1380 columns.
MIP Presolve modified 39767 coefficients.
Aggregator did 411 substitutions.
Reduced MIP has 43070 rows, 36586 columns, and 117729 nonzeros.
Reduced MIP has 14382 binaries, 0 generals, 0 SOSs, and 0 indicators.
Presolve time = 0.13 sec. (138.28 ticks)
Tried aggregator 2 times.
MIP Presolve eliminated 907 rows and 760 columns.
MIP Presolve modified 16906 coefficients.
Aggregator did 1 substitutions.
Reduced MIP has 42162 rows, 35825 columns, and 115149 nonzeros.
Reduced MIP has 14002 binaries, 0 generals, 0 SOSs, and 0 indicators.
Presolve time = 0.06 sec. (75.59 ticks)
Tried aggregator 2 times.
MIP Presolve eliminated 2 rows and 2 columns.
MIP Presolve modified 12983 coefficients.
Aggregator did 2 substitutions.
Reduced MIP has 42158 rows, 35821 columns, and 115139 nonzeros.
Reduced MIP has 14001 binaries, 0 generals, 0 SOSs, and 0 indicators.
Presolve time = 0.11 sec. (134.13 ticks)
Represolve time = 0.98 sec. (560.06 ticks)
   4872     0    22787.7664   807      -35.8900    Cuts: 1123   148069     --- 
   4872     0    22779.3413   807      -35.8900     Cuts: 344   148327     --- 
   4872     0    22765.4729   807      -35.8900     Cuts: 176   148487     --- 
   4872     0    22763.0592   807      -35.8900     Cuts: 160   148650     --- 
   4872     0    22761.3894   807      -35.8900     Cuts: 172   148774     --- 
   4872     0    22758.0942   807      -35.8900     Cuts: 119   148865     --- 
   4872     0    22756.5408   807      -35.8900      Cuts: 83   148961     --- 
   4872     0    22747.6869   807      -35.8900     Cuts: 107   149069     --- 
   4872     0    22745.9617   807      -35.8900     Cuts: 125   149174     --- 
   4872     0    22708.2676   807      -35.8900     Cuts: 172   149361     --- 
   4872     0    22698.1752   807      -35.8900     Cuts: 240   149535     --- 
   4872     0    22696.7310   807      -35.8900     Cuts: 156   149662     --- 
   4872     0    22695.6662   807      -35.8900     Cuts: 117   149753     --- 
   4872     0    22693.9683   807      -35.8900      Cuts: 87   149847     --- 
   4872     0    22692.4946   807      -35.8900     Cuts: 130   149940     --- 
   4872     0    22685.2598   807      -35.8900     Cuts: 120   150070     --- 
   4872     9        cutoff            -35.8900    16857.6099   150942     --- 
   4902     9    20971.6626   782      -35.8900    16857.6099   150662     --- 
   4952    30    10560.1071   566      -35.8900    16857.6099   157269     --- 
   5033    35    10222.2977   560      -35.8900    16857.6099   157829     --- 
Elapsed time = 93.81 sec. (47987.38 ticks, tree = 0.15 MB, solutions = 1)
   5135    51     2724.3113   545      -35.8900    16857.6099   158749     --- 
   5258    39     8224.6301   482      -35.8900    16857.6099   158053     --- 
   5411    63     7417.1880   378      -35.8900    16857.6099   159463     --- 
   5591    42     5517.7702   455      -35.8900    16857.6099   158344     --- 
   5770    68      445.6315   423      -35.8900    16857.6099   158676     --- 
   5984    91     6212.4926   484      -35.8900    15806.3783   160669     --- 
   6316   157     7757.6639   507      -35.8900    15806.3783   163853     --- 
   6734   539     6836.5428   464      -35.8900    15806.3783   177535     --- 
   7142   277    10360.4789   463      -35.8900    14979.8033   169064     --- 
   7582   514     8647.1333   471      -35.8900    14979.8033   178186     --- 
Elapsed time = 139.81 sec. (57559.70 ticks, tree = 5.43 MB, solutions = 1)
   8052  1256     1478.4583   382      -35.8900    14979.8033   202803     --- 
   8569   864     1636.8549   381      -35.8900    14979.8033   189582     --- 
   9102  1653     3454.0374   231      -35.8900    14091.6443   218475     --- 
   9645  2844        cutoff            -35.8900    13968.8058   264093     --- 
  10201  2413     3788.1187   418      -35.8900    13205.3267   248167     --- 
  10769  4767     6623.7417   449      -35.8900    12914.3763   338265     --- 
  11290  1310     9962.8709   467      -35.8900    12914.3763   204409     --- 
  11817  2291     2104.6378   364      -35.8900    12914.3763   242507     --- 
  12297  2598     2073.5956   357      -35.8900    11927.5194   253790     --- 
  12793  5251       94.4253   346      -35.8900    11927.5194   355330     --- 
Elapsed time = 186.41 sec. (67109.45 ticks, tree = 68.64 MB, solutions = 1)
  13322  3893     3879.9944   414      -35.8900    11927.5194   306509     --- 
  13882  3854      943.3227   313      -35.8900    11591.2217   304672     --- 
  14463  3392      972.1369    71      -35.8900    11591.2217   285392     --- 
  14927  5218      892.8763   302      -35.8900    11591.2217   354274     --- 
  15411  6275     3722.6915   221      -35.8900    11394.9084   401721     --- 
  15936  7005     2072.1752   369      -35.8900    11394.9084   431280     --- 
  16388  6491     4056.0277   294      -35.8900    11268.3538   413049     --- 
  16903  7072     1401.3042   286      -35.8900    10796.8058   432770     --- 
  17372  8479     3798.4094   442      -35.8900    10796.8058   498298     --- 
  17882  6267     4458.3545   406      -35.8900    10612.5078   401846     --- 
Elapsed time = 234.66 sec. (76659.39 ticks, tree = 82.64 MB, solutions = 1)
  18330  8515     6280.2635   255      -35.8900    10612.5078   499713     --- 
  18711  8538     7820.7274   385      -35.8900    10337.7149   500593     --- 
  19077  7492      194.4497   412      -35.8900    10337.7149   453142     --- 
  19498  7042        cutoff            -35.8900    10337.7149   436391     --- 
  19935  8079     2844.3571   419      -35.8900    10337.7149   478244     --- 
  20228  8361     6512.6345   476      -35.8900    10001.6086   494063     --- 
  20518  9615     8514.0765   429      -35.8900    10001.6086   541276     --- 
  20924 10418        cutoff            -35.8900    10001.6086   574815     --- 
  21306 11161     9294.9458   552      -35.8900     9917.7123   611117     --- 
  21630 11747     2210.5784   406      -35.8900     9917.7123   640050     --- 
Elapsed time = 285.98 sec. (86226.61 ticks, tree = 158.98 MB, solutions = 1)
  21928 11178     5425.1261   521      -35.8900     9866.4279   612739     --- 
  22279 10645     2390.4635   406      -35.8900     9866.4279   585567     --- 
  22692 11268     1888.4299   498      -35.8900     9783.8589   617994     --- 
  23113 10123     4630.5045   488      -35.8900     9783.8589   568193     --- 
  23521  9838     2679.0886   410      -35.8900     9783.8589   552482     --- 
  23878 11315     3542.8991   472      -35.8900     9783.8589   620490     --- 
  24210 11430       -1.9894   393      -35.8900     9783.8589   625021     --- 
  24507 11978       59.3153   362      -35.8900     9783.8589   649946     --- 
  24791 11992     1689.6857   523      -35.8900     9783.8589   651320     --- 
  25045 11427      231.6579   297      -35.8900     9783.8589   626325     --- 
Elapsed time = 306.42 sec. (95785.23 ticks, tree = 154.25 MB, solutions = 1)
  25295 12364      715.2364   318      -35.8900     9783.8589   668891     --- 
  25494 12224     2459.6624   365      -35.8900     9783.8589   662261     --- 
  25683 12522     5609.6488   471      -35.8900     9783.8589   679793     --- 
  25829 13054     3100.2815   405      -35.8900     9783.8589   704384     --- 

GUB cover cuts applied:  10
Clique cuts applied:  15
Cover cuts applied:  146
Implied bound cuts applied:  116
Flow cuts applied:  861
Mixed integer rounding cuts applied:  114
Lift and project cuts applied:  3
Gomory fractional cuts applied:  15

Root node processing (before b&c):
  Real time             =    4.72 sec. (6234.88 ticks)
Parallel b&c, 16 threads:
  Real time             =  303.45 sec. (93795.56 ticks)
  Sync time (average)   =    7.75 sec.
  Wait time (average)   =    0.06 sec.
                          ------------
Total (root+branch&cut) =  308.17 sec. (100030.44 ticks)

Solution pool: 1 solution saved.

MIP - Deterministic time limit exceeded, integer feasible:  Objective = -3.5890003588e+01
Current MIP best bound =  9.3470653075e+03 (gap = 9382.96, 2.6e+04%)
Solution time =  308.17 sec.  Iterations = 822842  Nodes = 25903 (15444)
Deterministic time = 100030.75 ticks  (324.59 ticks/sec)

CPLEX> Incumbent solution written to file 'C:\Users\wenmi\Desktop\competitiveMPEC\logs\tmpui18_te9.cplex.sol'.
CPLEX> Exporting results... 
